p cnf 120 3276
1 2 3 4 5 6 7 8 9 10 11 12 13 14 15 16 17 18 19 20 0
21 22 23 24 25 26 27 28 29 30 31 32 33 34 35 36 37 38 39 40 0
41 42 43 44 45 46 47 48 49 50 51 52 53 54 55 56 57 58 59 60 0
61 62 63 64 65 66 67 68 69 70 71 72 73 74 75 76 77 78 79 80 0
81 82 83 84 85 86 87 88 89 90 91 92 93 94 95 96 97 98 99 100 0
101 102 103 104 105 106 107 108 109 110 111 112 113 114 115 116 117 118 119 120 0
-1 -21 0
-1 -41 0
-1 -61 0
-1 -81 0
-1 -101 0
-21 -41 0
-21 -61 0
-21 -81 0
-21 -101 0
-41 -61 0
-41 -81 0
-41 -101 0
-61 -81 0
-61 -101 0
-81 -101 0
-2 -22 0
-2 -42 0
-2 -62 0
-2 -82 0
-2 -102 0
-22 -42 0
-22 -62 0
-22 -82 0
-22 -102 0
-42 -62 0
-42 -82 0
-42 -102 0
-62 -82 0
-62 -102 0
-82 -102 0
-3 -23 0
-3 -43 0
-3 -63 0
-3 -83 0
-3 -103 0
-23 -43 0
-23 -63 0
-23 -83 0
-23 -103 0
-43 -63 0
-43 -83 0
-43 -103 0
-63 -83 0
-63 -103 0
-83 -103 0
-4 -24 0
-4 -44 0
-4 -64 0
-4 -84 0
-4 -104 0
-24 -44 0
-24 -64 0
-24 -84 0
-24 -104 0
-44 -64 0
-44 -84 0
-44 -104 0
-64 -84 0
-64 -104 0
-84 -104 0
-5 -25 0
-5 -45 0
-5 -65 0
-5 -85 0
-5 -105 0
-25 -45 0
-25 -65 0
-25 -85 0
-25 -105 0
-45 -65 0
-45 -85 0
-45 -105 0
-65 -85 0
-65 -105 0
-85 -105 0
-6 -26 0
-6 -46 0
-6 -66 0
-6 -86 0
-6 -106 0
-26 -46 0
-26 -66 0
-26 -86 0
-26 -106 0
-46 -66 0
-46 -86 0
-46 -106 0
-66 -86 0
-66 -106 0
-86 -106 0
-7 -27 0
-7 -47 0
-7 -67 0
-7 -87 0
-7 -107 0
-27 -47 0
-27 -67 0
-27 -87 0
-27 -107 0
-47 -67 0
-47 -87 0
-47 -107 0
-67 -87 0
-67 -107 0
-87 -107 0
-8 -28 0
-8 -48 0
-8 -68 0
-8 -88 0
-8 -108 0
-28 -48 0
-28 -68 0
-28 -88 0
-28 -108 0
-48 -68 0
-48 -88 0
-48 -108 0
-68 -88 0
-68 -108 0
-88 -108 0
-9 -29 0
-9 -49 0
-9 -69 0
-9 -89 0
-9 -109 0
-29 -49 0
-29 -69 0
-29 -89 0
-29 -109 0
-49 -69 0
-49 -89 0
-49 -109 0
-69 -89 0
-69 -109 0
-89 -109 0
-10 -30 0
-10 -50 0
-10 -70 0
-10 -90 0
-10 -110 0
-30 -50 0
-30 -70 0
-30 -90 0
-30 -110 0
-50 -70 0
-50 -90 0
-50 -110 0
-70 -90 0
-70 -110 0
-90 -110 0
-11 -31 0
-11 -51 0
-11 -71 0
-11 -91 0
-11 -111 0
-31 -51 0
-31 -71 0
-31 -91 0
-31 -111 0
-51 -71 0
-51 -91 0
-51 -111 0
-71 -91 0
-71 -111 0
-91 -111 0
-12 -32 0
-12 -52 0
-12 -72 0
-12 -92 0
-12 -112 0
-32 -52 0
-32 -72 0
-32 -92 0
-32 -112 0
-52 -72 0
-52 -92 0
-52 -112 0
-72 -92 0
-72 -112 0
-92 -112 0
-13 -33 0
-13 -53 0
-13 -73 0
-13 -93 0
-13 -113 0
-33 -53 0
-33 -73 0
-33 -93 0
-33 -113 0
-53 -73 0
-53 -93 0
-53 -113 0
-73 -93 0
-73 -113 0
-93 -113 0
-14 -34 0
-14 -54 0
-14 -74 0
-14 -94 0
-14 -114 0
-34 -54 0
-34 -74 0
-34 -94 0
-34 -114 0
-54 -74 0
-54 -94 0
-54 -114 0
-74 -94 0
-74 -114 0
-94 -114 0
-15 -35 0
-15 -55 0
-15 -75 0
-15 -95 0
-15 -115 0
-35 -55 0
-35 -75 0
-35 -95 0
-35 -115 0
-55 -75 0
-55 -95 0
-55 -115 0
-75 -95 0
-75 -115 0
-95 -115 0
-16 -36 0
-16 -56 0
-16 -76 0
-16 -96 0
-16 -116 0
-36 -56 0
-36 -76 0
-36 -96 0
-36 -116 0
-56 -76 0
-56 -96 0
-56 -116 0
-76 -96 0
-76 -116 0
-96 -116 0
-17 -37 0
-17 -57 0
-17 -77 0
-17 -97 0
-17 -117 0
-37 -57 0
-37 -77 0
-37 -97 0
-37 -117 0
-57 -77 0
-57 -97 0
-57 -117 0
-77 -97 0
-77 -117 0
-97 -117 0
-18 -38 0
-18 -58 0
-18 -78 0
-18 -98 0
-18 -118 0
-38 -58 0
-38 -78 0
-38 -98 0
-38 -118 0
-58 -78 0
-58 -98 0
-58 -118 0
-78 -98 0
-78 -118 0
-98 -118 0
-19 -39 0
-19 -59 0
-19 -79 0
-19 -99 0
-19 -119 0
-39 -59 0
-39 -79 0
-39 -99 0
-39 -119 0
-59 -79 0
-59 -99 0
-59 -119 0
-79 -99 0
-79 -119 0
-99 -119 0
-20 -40 0
-20 -60 0
-20 -80 0
-20 -100 0
-20 -120 0
-40 -60 0
-40 -80 0
-40 -100 0
-40 -120 0
-60 -80 0
-60 -100 0
-60 -120 0
-80 -100 0
-80 -120 0
-100 -120 0
-1 -30 0
-1 -50 0
-1 -70 0
-1 -90 0
-1 -110 0
-21 -10 0
-21 -50 0
-21 -70 0
-21 -90 0
-21 -110 0
-41 -10 0
-41 -30 0
-41 -70 0
-41 -90 0
-41 -110 0
-61 -10 0
-61 -30 0
-61 -50 0
-61 -90 0
-61 -110 0
-81 -10 0
-81 -30 0
-81 -50 0
-81 -70 0
-81 -110 0
-101 -10 0
-101 -30 0
-101 -50 0
-101 -70 0
-101 -90 0
-1 -34 0
-1 -54 0
-1 -74 0
-1 -94 0
-1 -114 0
-21 -14 0
-21 -54 0
-21 -74 0
-21 -94 0
-21 -114 0
-41 -14 0
-41 -34 0
-41 -74 0
-41 -94 0
-41 -114 0
-61 -14 0
-61 -34 0
-61 -54 0
-61 -94 0
-61 -114 0
-81 -14 0
-81 -34 0
-81 -54 0
-81 -74 0
-81 -114 0
-101 -14 0
-101 -34 0
-101 -54 0
-101 -74 0
-101 -94 0
-1 -35 0
-1 -55 0
-1 -75 0
-1 -95 0
-1 -115 0
-21 -15 0
-21 -55 0
-21 -75 0
-21 -95 0
-21 -115 0
-41 -15 0
-41 -35 0
-41 -75 0
-41 -95 0
-41 -115 0
-61 -15 0
-61 -35 0
-61 -55 0
-61 -95 0
-61 -115 0
-81 -15 0
-81 -35 0
-81 -55 0
-81 -75 0
-81 -115 0
-101 -15 0
-101 -35 0
-101 -55 0
-101 -75 0
-101 -95 0
-1 -36 0
-1 -56 0
-1 -76 0
-1 -96 0
-1 -116 0
-21 -16 0
-21 -56 0
-21 -76 0
-21 -96 0
-21 -116 0
-41 -16 0
-41 -36 0
-41 -76 0
-41 -96 0
-41 -116 0
-61 -16 0
-61 -36 0
-61 -56 0
-61 -96 0
-61 -116 0
-81 -16 0
-81 -36 0
-81 -56 0
-81 -76 0
-81 -116 0
-101 -16 0
-101 -36 0
-101 -56 0
-101 -76 0
-101 -96 0
-1 -38 0
-1 -58 0
-1 -78 0
-1 -98 0
-1 -118 0
-21 -18 0
-21 -58 0
-21 -78 0
-21 -98 0
-21 -118 0
-41 -18 0
-41 -38 0
-41 -78 0
-41 -98 0
-41 -118 0
-61 -18 0
-61 -38 0
-61 -58 0
-61 -98 0
-61 -118 0
-81 -18 0
-81 -38 0
-81 -58 0
-81 -78 0
-81 -118 0
-101 -18 0
-101 -38 0
-101 -58 0
-101 -78 0
-101 -98 0
-2 -23 0
-2 -43 0
-2 -63 0
-2 -83 0
-2 -103 0
-22 -3 0
-22 -43 0
-22 -63 0
-22 -83 0
-22 -103 0
-42 -3 0
-42 -23 0
-42 -63 0
-42 -83 0
-42 -103 0
-62 -3 0
-62 -23 0
-62 -43 0
-62 -83 0
-62 -103 0
-82 -3 0
-82 -23 0
-82 -43 0
-82 -63 0
-82 -103 0
-102 -3 0
-102 -23 0
-102 -43 0
-102 -63 0
-102 -83 0
-2 -24 0
-2 -44 0
-2 -64 0
-2 -84 0
-2 -104 0
-22 -4 0
-22 -44 0
-22 -64 0
-22 -84 0
-22 -104 0
-42 -4 0
-42 -24 0
-42 -64 0
-42 -84 0
-42 -104 0
-62 -4 0
-62 -24 0
-62 -44 0
-62 -84 0
-62 -104 0
-82 -4 0
-82 -24 0
-82 -44 0
-82 -64 0
-82 -104 0
-102 -4 0
-102 -24 0
-102 -44 0
-102 -64 0
-102 -84 0
-2 -25 0
-2 -45 0
-2 -65 0
-2 -85 0
-2 -105 0
-22 -5 0
-22 -45 0
-22 -65 0
-22 -85 0
-22 -105 0
-42 -5 0
-42 -25 0
-42 -65 0
-42 -85 0
-42 -105 0
-62 -5 0
-62 -25 0
-62 -45 0
-62 -85 0
-62 -105 0
-82 -5 0
-82 -25 0
-82 -45 0
-82 -65 0
-82 -105 0
-102 -5 0
-102 -25 0
-102 -45 0
-102 -65 0
-102 -85 0
-2 -26 0
-2 -46 0
-2 -66 0
-2 -86 0
-2 -106 0
-22 -6 0
-22 -46 0
-22 -66 0
-22 -86 0
-22 -106 0
-42 -6 0
-42 -26 0
-42 -66 0
-42 -86 0
-42 -106 0
-62 -6 0
-62 -26 0
-62 -46 0
-62 -86 0
-62 -106 0
-82 -6 0
-82 -26 0
-82 -46 0
-82 -66 0
-82 -106 0
-102 -6 0
-102 -26 0
-102 -46 0
-102 -66 0
-102 -86 0
-2 -27 0
-2 -47 0
-2 -67 0
-2 -87 0
-2 -107 0
-22 -7 0
-22 -47 0
-22 -67 0
-22 -87 0
-22 -107 0
-42 -7 0
-42 -27 0
-42 -67 0
-42 -87 0
-42 -107 0
-62 -7 0
-62 -27 0
-62 -47 0
-62 -87 0
-62 -107 0
-82 -7 0
-82 -27 0
-82 -47 0
-82 -67 0
-82 -107 0
-102 -7 0
-102 -27 0
-102 -47 0
-102 -67 0
-102 -87 0
-2 -28 0
-2 -48 0
-2 -68 0
-2 -88 0
-2 -108 0
-22 -8 0
-22 -48 0
-22 -68 0
-22 -88 0
-22 -108 0
-42 -8 0
-42 -28 0
-42 -68 0
-42 -88 0
-42 -108 0
-62 -8 0
-62 -28 0
-62 -48 0
-62 -88 0
-62 -108 0
-82 -8 0
-82 -28 0
-82 -48 0
-82 -68 0
-82 -108 0
-102 -8 0
-102 -28 0
-102 -48 0
-102 -68 0
-102 -88 0
-2 -34 0
-2 -54 0
-2 -74 0
-2 -94 0
-2 -114 0
-22 -14 0
-22 -54 0
-22 -74 0
-22 -94 0
-22 -114 0
-42 -14 0
-42 -34 0
-42 -74 0
-42 -94 0
-42 -114 0
-62 -14 0
-62 -34 0
-62 -54 0
-62 -94 0
-62 -114 0
-82 -14 0
-82 -34 0
-82 -54 0
-82 -74 0
-82 -114 0
-102 -14 0
-102 -34 0
-102 -54 0
-102 -74 0
-102 -94 0
-2 -37 0
-2 -57 0
-2 -77 0
-2 -97 0
-2 -117 0
-22 -17 0
-22 -57 0
-22 -77 0
-22 -97 0
-22 -117 0
-42 -17 0
-42 -37 0
-42 -77 0
-42 -97 0
-42 -117 0
-62 -17 0
-62 -37 0
-62 -57 0
-62 -97 0
-62 -117 0
-82 -17 0
-82 -37 0
-82 -57 0
-82 -77 0
-82 -117 0
-102 -17 0
-102 -37 0
-102 -57 0
-102 -77 0
-102 -97 0
-2 -39 0
-2 -59 0
-2 -79 0
-2 -99 0
-2 -119 0
-22 -19 0
-22 -59 0
-22 -79 0
-22 -99 0
-22 -119 0
-42 -19 0
-42 -39 0
-42 -79 0
-42 -99 0
-42 -119 0
-62 -19 0
-62 -39 0
-62 -59 0
-62 -99 0
-62 -119 0
-82 -19 0
-82 -39 0
-82 -59 0
-82 -79 0
-82 -119 0
-102 -19 0
-102 -39 0
-102 -59 0
-102 -79 0
-102 -99 0
-3 -24 0
-3 -44 0
-3 -64 0
-3 -84 0
-3 -104 0
-23 -4 0
-23 -44 0
-23 -64 0
-23 -84 0
-23 -104 0
-43 -4 0
-43 -24 0
-43 -64 0
-43 -84 0
-43 -104 0
-63 -4 0
-63 -24 0
-63 -44 0
-63 -84 0
-63 -104 0
-83 -4 0
-83 -24 0
-83 -44 0
-83 -64 0
-83 -104 0
-103 -4 0
-103 -24 0
-103 -44 0
-103 -64 0
-103 -84 0
-3 -25 0
-3 -45 0
-3 -65 0
-3 -85 0
-3 -105 0
-23 -5 0
-23 -45 0
-23 -65 0
-23 -85 0
-23 -105 0
-43 -5 0
-43 -25 0
-43 -65 0
-43 -85 0
-43 -105 0
-63 -5 0
-63 -25 0
-63 -45 0
-63 -85 0
-63 -105 0
-83 -5 0
-83 -25 0
-83 -45 0
-83 -65 0
-83 -105 0
-103 -5 0
-103 -25 0
-103 -45 0
-103 -65 0
-103 -85 0
-3 -26 0
-3 -46 0
-3 -66 0
-3 -86 0
-3 -106 0
-23 -6 0
-23 -46 0
-23 -66 0
-23 -86 0
-23 -106 0
-43 -6 0
-43 -26 0
-43 -66 0
-43 -86 0
-43 -106 0
-63 -6 0
-63 -26 0
-63 -46 0
-63 -86 0
-63 -106 0
-83 -6 0
-83 -26 0
-83 -46 0
-83 -66 0
-83 -106 0
-103 -6 0
-103 -26 0
-103 -46 0
-103 -66 0
-103 -86 0
-3 -27 0
-3 -47 0
-3 -67 0
-3 -87 0
-3 -107 0
-23 -7 0
-23 -47 0
-23 -67 0
-23 -87 0
-23 -107 0
-43 -7 0
-43 -27 0
-43 -67 0
-43 -87 0
-43 -107 0
-63 -7 0
-63 -27 0
-63 -47 0
-63 -87 0
-63 -107 0
-83 -7 0
-83 -27 0
-83 -47 0
-83 -67 0
-83 -107 0
-103 -7 0
-103 -27 0
-103 -47 0
-103 -67 0
-103 -87 0
-3 -28 0
-3 -48 0
-3 -68 0
-3 -88 0
-3 -108 0
-23 -8 0
-23 -48 0
-23 -68 0
-23 -88 0
-23 -108 0
-43 -8 0
-43 -28 0
-43 -68 0
-43 -88 0
-43 -108 0
-63 -8 0
-63 -28 0
-63 -48 0
-63 -88 0
-63 -108 0
-83 -8 0
-83 -28 0
-83 -48 0
-83 -68 0
-83 -108 0
-103 -8 0
-103 -28 0
-103 -48 0
-103 -68 0
-103 -88 0
-3 -32 0
-3 -52 0
-3 -72 0
-3 -92 0
-3 -112 0
-23 -12 0
-23 -52 0
-23 -72 0
-23 -92 0
-23 -112 0
-43 -12 0
-43 -32 0
-43 -72 0
-43 -92 0
-43 -112 0
-63 -12 0
-63 -32 0
-63 -52 0
-63 -92 0
-63 -112 0
-83 -12 0
-83 -32 0
-83 -52 0
-83 -72 0
-83 -112 0
-103 -12 0
-103 -32 0
-103 -52 0
-103 -72 0
-103 -92 0
-3 -33 0
-3 -53 0
-3 -73 0
-3 -93 0
-3 -113 0
-23 -13 0
-23 -53 0
-23 -73 0
-23 -93 0
-23 -113 0
-43 -13 0
-43 -33 0
-43 -73 0
-43 -93 0
-43 -113 0
-63 -13 0
-63 -33 0
-63 -53 0
-63 -93 0
-63 -113 0
-83 -13 0
-83 -33 0
-83 -53 0
-83 -73 0
-83 -113 0
-103 -13 0
-103 -33 0
-103 -53 0
-103 -73 0
-103 -93 0
-3 -34 0
-3 -54 0
-3 -74 0
-3 -94 0
-3 -114 0
-23 -14 0
-23 -54 0
-23 -74 0
-23 -94 0
-23 -114 0
-43 -14 0
-43 -34 0
-43 -74 0
-43 -94 0
-43 -114 0
-63 -14 0
-63 -34 0
-63 -54 0
-63 -94 0
-63 -114 0
-83 -14 0
-83 -34 0
-83 -54 0
-83 -74 0
-83 -114 0
-103 -14 0
-103 -34 0
-103 -54 0
-103 -74 0
-103 -94 0
-3 -35 0
-3 -55 0
-3 -75 0
-3 -95 0
-3 -115 0
-23 -15 0
-23 -55 0
-23 -75 0
-23 -95 0
-23 -115 0
-43 -15 0
-43 -35 0
-43 -75 0
-43 -95 0
-43 -115 0
-63 -15 0
-63 -35 0
-63 -55 0
-63 -95 0
-63 -115 0
-83 -15 0
-83 -35 0
-83 -55 0
-83 -75 0
-83 -115 0
-103 -15 0
-103 -35 0
-103 -55 0
-103 -75 0
-103 -95 0
-3 -36 0
-3 -56 0
-3 -76 0
-3 -96 0
-3 -116 0
-23 -16 0
-23 -56 0
-23 -76 0
-23 -96 0
-23 -116 0
-43 -16 0
-43 -36 0
-43 -76 0
-43 -96 0
-43 -116 0
-63 -16 0
-63 -36 0
-63 -56 0
-63 -96 0
-63 -116 0
-83 -16 0
-83 -36 0
-83 -56 0
-83 -76 0
-83 -116 0
-103 -16 0
-103 -36 0
-103 -56 0
-103 -76 0
-103 -96 0
-3 -38 0
-3 -58 0
-3 -78 0
-3 -98 0
-3 -118 0
-23 -18 0
-23 -58 0
-23 -78 0
-23 -98 0
-23 -118 0
-43 -18 0
-43 -38 0
-43 -78 0
-43 -98 0
-43 -118 0
-63 -18 0
-63 -38 0
-63 -58 0
-63 -98 0
-63 -118 0
-83 -18 0
-83 -38 0
-83 -58 0
-83 -78 0
-83 -118 0
-103 -18 0
-103 -38 0
-103 -58 0
-103 -78 0
-103 -98 0
-3 -39 0
-3 -59 0
-3 -79 0
-3 -99 0
-3 -119 0
-23 -19 0
-23 -59 0
-23 -79 0
-23 -99 0
-23 -119 0
-43 -19 0
-43 -39 0
-43 -79 0
-43 -99 0
-43 -119 0
-63 -19 0
-63 -39 0
-63 -59 0
-63 -99 0
-63 -119 0
-83 -19 0
-83 -39 0
-83 -59 0
-83 -79 0
-83 -119 0
-103 -19 0
-103 -39 0
-103 -59 0
-103 -79 0
-103 -99 0
-3 -40 0
-3 -60 0
-3 -80 0
-3 -100 0
-3 -120 0
-23 -20 0
-23 -60 0
-23 -80 0
-23 -100 0
-23 -120 0
-43 -20 0
-43 -40 0
-43 -80 0
-43 -100 0
-43 -120 0
-63 -20 0
-63 -40 0
-63 -60 0
-63 -100 0
-63 -120 0
-83 -20 0
-83 -40 0
-83 -60 0
-83 -80 0
-83 -120 0
-103 -20 0
-103 -40 0
-103 -60 0
-103 -80 0
-103 -100 0
-4 -25 0
-4 -45 0
-4 -65 0
-4 -85 0
-4 -105 0
-24 -5 0
-24 -45 0
-24 -65 0
-24 -85 0
-24 -105 0
-44 -5 0
-44 -25 0
-44 -65 0
-44 -85 0
-44 -105 0
-64 -5 0
-64 -25 0
-64 -45 0
-64 -85 0
-64 -105 0
-84 -5 0
-84 -25 0
-84 -45 0
-84 -65 0
-84 -105 0
-104 -5 0
-104 -25 0
-104 -45 0
-104 -65 0
-104 -85 0
-4 -26 0
-4 -46 0
-4 -66 0
-4 -86 0
-4 -106 0
-24 -6 0
-24 -46 0
-24 -66 0
-24 -86 0
-24 -106 0
-44 -6 0
-44 -26 0
-44 -66 0
-44 -86 0
-44 -106 0
-64 -6 0
-64 -26 0
-64 -46 0
-64 -86 0
-64 -106 0
-84 -6 0
-84 -26 0
-84 -46 0
-84 -66 0
-84 -106 0
-104 -6 0
-104 -26 0
-104 -46 0
-104 -66 0
-104 -86 0
-4 -27 0
-4 -47 0
-4 -67 0
-4 -87 0
-4 -107 0
-24 -7 0
-24 -47 0
-24 -67 0
-24 -87 0
-24 -107 0
-44 -7 0
-44 -27 0
-44 -67 0
-44 -87 0
-44 -107 0
-64 -7 0
-64 -27 0
-64 -47 0
-64 -87 0
-64 -107 0
-84 -7 0
-84 -27 0
-84 -47 0
-84 -67 0
-84 -107 0
-104 -7 0
-104 -27 0
-104 -47 0
-104 -67 0
-104 -87 0
-4 -28 0
-4 -48 0
-4 -68 0
-4 -88 0
-4 -108 0
-24 -8 0
-24 -48 0
-24 -68 0
-24 -88 0
-24 -108 0
-44 -8 0
-44 -28 0
-44 -68 0
-44 -88 0
-44 -108 0
-64 -8 0
-64 -28 0
-64 -48 0
-64 -88 0
-64 -108 0
-84 -8 0
-84 -28 0
-84 -48 0
-84 -68 0
-84 -108 0
-104 -8 0
-104 -28 0
-104 -48 0
-104 -68 0
-104 -88 0
-4 -32 0
-4 -52 0
-4 -72 0
-4 -92 0
-4 -112 0
-24 -12 0
-24 -52 0
-24 -72 0
-24 -92 0
-24 -112 0
-44 -12 0
-44 -32 0
-44 -72 0
-44 -92 0
-44 -112 0
-64 -12 0
-64 -32 0
-64 -52 0
-64 -92 0
-64 -112 0
-84 -12 0
-84 -32 0
-84 -52 0
-84 -72 0
-84 -112 0
-104 -12 0
-104 -32 0
-104 -52 0
-104 -72 0
-104 -92 0
-4 -33 0
-4 -53 0
-4 -73 0
-4 -93 0
-4 -113 0
-24 -13 0
-24 -53 0
-24 -73 0
-24 -93 0
-24 -113 0
-44 -13 0
-44 -33 0
-44 -73 0
-44 -93 0
-44 -113 0
-64 -13 0
-64 -33 0
-64 -53 0
-64 -93 0
-64 -113 0
-84 -13 0
-84 -33 0
-84 -53 0
-84 -73 0
-84 -113 0
-104 -13 0
-104 -33 0
-104 -53 0
-104 -73 0
-104 -93 0
-4 -35 0
-4 -55 0
-4 -75 0
-4 -95 0
-4 -115 0
-24 -15 0
-24 -55 0
-24 -75 0
-24 -95 0
-24 -115 0
-44 -15 0
-44 -35 0
-44 -75 0
-44 -95 0
-44 -115 0
-64 -15 0
-64 -35 0
-64 -55 0
-64 -95 0
-64 -115 0
-84 -15 0
-84 -35 0
-84 -55 0
-84 -75 0
-84 -115 0
-104 -15 0
-104 -35 0
-104 -55 0
-104 -75 0
-104 -95 0
-4 -37 0
-4 -57 0
-4 -77 0
-4 -97 0
-4 -117 0
-24 -17 0
-24 -57 0
-24 -77 0
-24 -97 0
-24 -117 0
-44 -17 0
-44 -37 0
-44 -77 0
-44 -97 0
-44 -117 0
-64 -17 0
-64 -37 0
-64 -57 0
-64 -97 0
-64 -117 0
-84 -17 0
-84 -37 0
-84 -57 0
-84 -77 0
-84 -117 0
-104 -17 0
-104 -37 0
-104 -57 0
-104 -77 0
-104 -97 0
-4 -38 0
-4 -58 0
-4 -78 0
-4 -98 0
-4 -118 0
-24 -18 0
-24 -58 0
-24 -78 0
-24 -98 0
-24 -118 0
-44 -18 0
-44 -38 0
-44 -78 0
-44 -98 0
-44 -118 0
-64 -18 0
-64 -38 0
-64 -58 0
-64 -98 0
-64 -118 0
-84 -18 0
-84 -38 0
-84 -58 0
-84 -78 0
-84 -118 0
-104 -18 0
-104 -38 0
-104 -58 0
-104 -78 0
-104 -98 0
-4 -39 0
-4 -59 0
-4 -79 0
-4 -99 0
-4 -119 0
-24 -19 0
-24 -59 0
-24 -79 0
-24 -99 0
-24 -119 0
-44 -19 0
-44 -39 0
-44 -79 0
-44 -99 0
-44 -119 0
-64 -19 0
-64 -39 0
-64 -59 0
-64 -99 0
-64 -119 0
-84 -19 0
-84 -39 0
-84 -59 0
-84 -79 0
-84 -119 0
-104 -19 0
-104 -39 0
-104 -59 0
-104 -79 0
-104 -99 0
-4 -40 0
-4 -60 0
-4 -80 0
-4 -100 0
-4 -120 0
-24 -20 0
-24 -60 0
-24 -80 0
-24 -100 0
-24 -120 0
-44 -20 0
-44 -40 0
-44 -80 0
-44 -100 0
-44 -120 0
-64 -20 0
-64 -40 0
-64 -60 0
-64 -100 0
-64 -120 0
-84 -20 0
-84 -40 0
-84 -60 0
-84 -80 0
-84 -120 0
-104 -20 0
-104 -40 0
-104 -60 0
-104 -80 0
-104 -100 0
-5 -26 0
-5 -46 0
-5 -66 0
-5 -86 0
-5 -106 0
-25 -6 0
-25 -46 0
-25 -66 0
-25 -86 0
-25 -106 0
-45 -6 0
-45 -26 0
-45 -66 0
-45 -86 0
-45 -106 0
-65 -6 0
-65 -26 0
-65 -46 0
-65 -86 0
-65 -106 0
-85 -6 0
-85 -26 0
-85 -46 0
-85 -66 0
-85 -106 0
-105 -6 0
-105 -26 0
-105 -46 0
-105 -66 0
-105 -86 0
-5 -27 0
-5 -47 0
-5 -67 0
-5 -87 0
-5 -107 0
-25 -7 0
-25 -47 0
-25 -67 0
-25 -87 0
-25 -107 0
-45 -7 0
-45 -27 0
-45 -67 0
-45 -87 0
-45 -107 0
-65 -7 0
-65 -27 0
-65 -47 0
-65 -87 0
-65 -107 0
-85 -7 0
-85 -27 0
-85 -47 0
-85 -67 0
-85 -107 0
-105 -7 0
-105 -27 0
-105 -47 0
-105 -67 0
-105 -87 0
-5 -28 0
-5 -48 0
-5 -68 0
-5 -88 0
-5 -108 0
-25 -8 0
-25 -48 0
-25 -68 0
-25 -88 0
-25 -108 0
-45 -8 0
-45 -28 0
-45 -68 0
-45 -88 0
-45 -108 0
-65 -8 0
-65 -28 0
-65 -48 0
-65 -88 0
-65 -108 0
-85 -8 0
-85 -28 0
-85 -48 0
-85 -68 0
-85 -108 0
-105 -8 0
-105 -28 0
-105 -48 0
-105 -68 0
-105 -88 0
-5 -31 0
-5 -51 0
-5 -71 0
-5 -91 0
-5 -111 0
-25 -11 0
-25 -51 0
-25 -71 0
-25 -91 0
-25 -111 0
-45 -11 0
-45 -31 0
-45 -71 0
-45 -91 0
-45 -111 0
-65 -11 0
-65 -31 0
-65 -51 0
-65 -91 0
-65 -111 0
-85 -11 0
-85 -31 0
-85 -51 0
-85 -71 0
-85 -111 0
-105 -11 0
-105 -31 0
-105 -51 0
-105 -71 0
-105 -91 0
-5 -37 0
-5 -57 0
-5 -77 0
-5 -97 0
-5 -117 0
-25 -17 0
-25 -57 0
-25 -77 0
-25 -97 0
-25 -117 0
-45 -17 0
-45 -37 0
-45 -77 0
-45 -97 0
-45 -117 0
-65 -17 0
-65 -37 0
-65 -57 0
-65 -97 0
-65 -117 0
-85 -17 0
-85 -37 0
-85 -57 0
-85 -77 0
-85 -117 0
-105 -17 0
-105 -37 0
-105 -57 0
-105 -77 0
-105 -97 0
-5 -38 0
-5 -58 0
-5 -78 0
-5 -98 0
-5 -118 0
-25 -18 0
-25 -58 0
-25 -78 0
-25 -98 0
-25 -118 0
-45 -18 0
-45 -38 0
-45 -78 0
-45 -98 0
-45 -118 0
-65 -18 0
-65 -38 0
-65 -58 0
-65 -98 0
-65 -118 0
-85 -18 0
-85 -38 0
-85 -58 0
-85 -78 0
-85 -118 0
-105 -18 0
-105 -38 0
-105 -58 0
-105 -78 0
-105 -98 0
-5 -39 0
-5 -59 0
-5 -79 0
-5 -99 0
-5 -119 0
-25 -19 0
-25 -59 0
-25 -79 0
-25 -99 0
-25 -119 0
-45 -19 0
-45 -39 0
-45 -79 0
-45 -99 0
-45 -119 0
-65 -19 0
-65 -39 0
-65 -59 0
-65 -99 0
-65 -119 0
-85 -19 0
-85 -39 0
-85 -59 0
-85 -79 0
-85 -119 0
-105 -19 0
-105 -39 0
-105 -59 0
-105 -79 0
-105 -99 0
-5 -40 0
-5 -60 0
-5 -80 0
-5 -100 0
-5 -120 0
-25 -20 0
-25 -60 0
-25 -80 0
-25 -100 0
-25 -120 0
-45 -20 0
-45 -40 0
-45 -80 0
-45 -100 0
-45 -120 0
-65 -20 0
-65 -40 0
-65 -60 0
-65 -100 0
-65 -120 0
-85 -20 0
-85 -40 0
-85 -60 0
-85 -80 0
-85 -120 0
-105 -20 0
-105 -40 0
-105 -60 0
-105 -80 0
-105 -100 0
-6 -27 0
-6 -47 0
-6 -67 0
-6 -87 0
-6 -107 0
-26 -7 0
-26 -47 0
-26 -67 0
-26 -87 0
-26 -107 0
-46 -7 0
-46 -27 0
-46 -67 0
-46 -87 0
-46 -107 0
-66 -7 0
-66 -27 0
-66 -47 0
-66 -87 0
-66 -107 0
-86 -7 0
-86 -27 0
-86 -47 0
-86 -67 0
-86 -107 0
-106 -7 0
-106 -27 0
-106 -47 0
-106 -67 0
-106 -87 0
-6 -28 0
-6 -48 0
-6 -68 0
-6 -88 0
-6 -108 0
-26 -8 0
-26 -48 0
-26 -68 0
-26 -88 0
-26 -108 0
-46 -8 0
-46 -28 0
-46 -68 0
-46 -88 0
-46 -108 0
-66 -8 0
-66 -28 0
-66 -48 0
-66 -88 0
-66 -108 0
-86 -8 0
-86 -28 0
-86 -48 0
-86 -68 0
-86 -108 0
-106 -8 0
-106 -28 0
-106 -48 0
-106 -68 0
-106 -88 0
-6 -35 0
-6 -55 0
-6 -75 0
-6 -95 0
-6 -115 0
-26 -15 0
-26 -55 0
-26 -75 0
-26 -95 0
-26 -115 0
-46 -15 0
-46 -35 0
-46 -75 0
-46 -95 0
-46 -115 0
-66 -15 0
-66 -35 0
-66 -55 0
-66 -95 0
-66 -115 0
-86 -15 0
-86 -35 0
-86 -55 0
-86 -75 0
-86 -115 0
-106 -15 0
-106 -35 0
-106 -55 0
-106 -75 0
-106 -95 0
-6 -36 0
-6 -56 0
-6 -76 0
-6 -96 0
-6 -116 0
-26 -16 0
-26 -56 0
-26 -76 0
-26 -96 0
-26 -116 0
-46 -16 0
-46 -36 0
-46 -76 0
-46 -96 0
-46 -116 0
-66 -16 0
-66 -36 0
-66 -56 0
-66 -96 0
-66 -116 0
-86 -16 0
-86 -36 0
-86 -56 0
-86 -76 0
-86 -116 0
-106 -16 0
-106 -36 0
-106 -56 0
-106 -76 0
-106 -96 0
-6 -37 0
-6 -57 0
-6 -77 0
-6 -97 0
-6 -117 0
-26 -17 0
-26 -57 0
-26 -77 0
-26 -97 0
-26 -117 0
-46 -17 0
-46 -37 0
-46 -77 0
-46 -97 0
-46 -117 0
-66 -17 0
-66 -37 0
-66 -57 0
-66 -97 0
-66 -117 0
-86 -17 0
-86 -37 0
-86 -57 0
-86 -77 0
-86 -117 0
-106 -17 0
-106 -37 0
-106 -57 0
-106 -77 0
-106 -97 0
-6 -38 0
-6 -58 0
-6 -78 0
-6 -98 0
-6 -118 0
-26 -18 0
-26 -58 0
-26 -78 0
-26 -98 0
-26 -118 0
-46 -18 0
-46 -38 0
-46 -78 0
-46 -98 0
-46 -118 0
-66 -18 0
-66 -38 0
-66 -58 0
-66 -98 0
-66 -118 0
-86 -18 0
-86 -38 0
-86 -58 0
-86 -78 0
-86 -118 0
-106 -18 0
-106 -38 0
-106 -58 0
-106 -78 0
-106 -98 0
-6 -39 0
-6 -59 0
-6 -79 0
-6 -99 0
-6 -119 0
-26 -19 0
-26 -59 0
-26 -79 0
-26 -99 0
-26 -119 0
-46 -19 0
-46 -39 0
-46 -79 0
-46 -99 0
-46 -119 0
-66 -19 0
-66 -39 0
-66 -59 0
-66 -99 0
-66 -119 0
-86 -19 0
-86 -39 0
-86 -59 0
-86 -79 0
-86 -119 0
-106 -19 0
-106 -39 0
-106 -59 0
-106 -79 0
-106 -99 0
-7 -28 0
-7 -48 0
-7 -68 0
-7 -88 0
-7 -108 0
-27 -8 0
-27 -48 0
-27 -68 0
-27 -88 0
-27 -108 0
-47 -8 0
-47 -28 0
-47 -68 0
-47 -88 0
-47 -108 0
-67 -8 0
-67 -28 0
-67 -48 0
-67 -88 0
-67 -108 0
-87 -8 0
-87 -28 0
-87 -48 0
-87 -68 0
-87 -108 0
-107 -8 0
-107 -28 0
-107 -48 0
-107 -68 0
-107 -88 0
-7 -31 0
-7 -51 0
-7 -71 0
-7 -91 0
-7 -111 0
-27 -11 0
-27 -51 0
-27 -71 0
-27 -91 0
-27 -111 0
-47 -11 0
-47 -31 0
-47 -71 0
-47 -91 0
-47 -111 0
-67 -11 0
-67 -31 0
-67 -51 0
-67 -91 0
-67 -111 0
-87 -11 0
-87 -31 0
-87 -51 0
-87 -71 0
-87 -111 0
-107 -11 0
-107 -31 0
-107 -51 0
-107 -71 0
-107 -91 0
-7 -33 0
-7 -53 0
-7 -73 0
-7 -93 0
-7 -113 0
-27 -13 0
-27 -53 0
-27 -73 0
-27 -93 0
-27 -113 0
-47 -13 0
-47 -33 0
-47 -73 0
-47 -93 0
-47 -113 0
-67 -13 0
-67 -33 0
-67 -53 0
-67 -93 0
-67 -113 0
-87 -13 0
-87 -33 0
-87 -53 0
-87 -73 0
-87 -113 0
-107 -13 0
-107 -33 0
-107 -53 0
-107 -73 0
-107 -93 0
-7 -35 0
-7 -55 0
-7 -75 0
-7 -95 0
-7 -115 0
-27 -15 0
-27 -55 0
-27 -75 0
-27 -95 0
-27 -115 0
-47 -15 0
-47 -35 0
-47 -75 0
-47 -95 0
-47 -115 0
-67 -15 0
-67 -35 0
-67 -55 0
-67 -95 0
-67 -115 0
-87 -15 0
-87 -35 0
-87 -55 0
-87 -75 0
-87 -115 0
-107 -15 0
-107 -35 0
-107 -55 0
-107 -75 0
-107 -95 0
-7 -36 0
-7 -56 0
-7 -76 0
-7 -96 0
-7 -116 0
-27 -16 0
-27 -56 0
-27 -76 0
-27 -96 0
-27 -116 0
-47 -16 0
-47 -36 0
-47 -76 0
-47 -96 0
-47 -116 0
-67 -16 0
-67 -36 0
-67 -56 0
-67 -96 0
-67 -116 0
-87 -16 0
-87 -36 0
-87 -56 0
-87 -76 0
-87 -116 0
-107 -16 0
-107 -36 0
-107 -56 0
-107 -76 0
-107 -96 0
-7 -37 0
-7 -57 0
-7 -77 0
-7 -97 0
-7 -117 0
-27 -17 0
-27 -57 0
-27 -77 0
-27 -97 0
-27 -117 0
-47 -17 0
-47 -37 0
-47 -77 0
-47 -97 0
-47 -117 0
-67 -17 0
-67 -37 0
-67 -57 0
-67 -97 0
-67 -117 0
-87 -17 0
-87 -37 0
-87 -57 0
-87 -77 0
-87 -117 0
-107 -17 0
-107 -37 0
-107 -57 0
-107 -77 0
-107 -97 0
-7 -38 0
-7 -58 0
-7 -78 0
-7 -98 0
-7 -118 0
-27 -18 0
-27 -58 0
-27 -78 0
-27 -98 0
-27 -118 0
-47 -18 0
-47 -38 0
-47 -78 0
-47 -98 0
-47 -118 0
-67 -18 0
-67 -38 0
-67 -58 0
-67 -98 0
-67 -118 0
-87 -18 0
-87 -38 0
-87 -58 0
-87 -78 0
-87 -118 0
-107 -18 0
-107 -38 0
-107 -58 0
-107 -78 0
-107 -98 0
-7 -39 0
-7 -59 0
-7 -79 0
-7 -99 0
-7 -119 0
-27 -19 0
-27 -59 0
-27 -79 0
-27 -99 0
-27 -119 0
-47 -19 0
-47 -39 0
-47 -79 0
-47 -99 0
-47 -119 0
-67 -19 0
-67 -39 0
-67 -59 0
-67 -99 0
-67 -119 0
-87 -19 0
-87 -39 0
-87 -59 0
-87 -79 0
-87 -119 0
-107 -19 0
-107 -39 0
-107 -59 0
-107 -79 0
-107 -99 0
-7 -40 0
-7 -60 0
-7 -80 0
-7 -100 0
-7 -120 0
-27 -20 0
-27 -60 0
-27 -80 0
-27 -100 0
-27 -120 0
-47 -20 0
-47 -40 0
-47 -80 0
-47 -100 0
-47 -120 0
-67 -20 0
-67 -40 0
-67 -60 0
-67 -100 0
-67 -120 0
-87 -20 0
-87 -40 0
-87 -60 0
-87 -80 0
-87 -120 0
-107 -20 0
-107 -40 0
-107 -60 0
-107 -80 0
-107 -100 0
-8 -29 0
-8 -49 0
-8 -69 0
-8 -89 0
-8 -109 0
-28 -9 0
-28 -49 0
-28 -69 0
-28 -89 0
-28 -109 0
-48 -9 0
-48 -29 0
-48 -69 0
-48 -89 0
-48 -109 0
-68 -9 0
-68 -29 0
-68 -49 0
-68 -89 0
-68 -109 0
-88 -9 0
-88 -29 0
-88 -49 0
-88 -69 0
-88 -109 0
-108 -9 0
-108 -29 0
-108 -49 0
-108 -69 0
-108 -89 0
-8 -30 0
-8 -50 0
-8 -70 0
-8 -90 0
-8 -110 0
-28 -10 0
-28 -50 0
-28 -70 0
-28 -90 0
-28 -110 0
-48 -10 0
-48 -30 0
-48 -70 0
-48 -90 0
-48 -110 0
-68 -10 0
-68 -30 0
-68 -50 0
-68 -90 0
-68 -110 0
-88 -10 0
-88 -30 0
-88 -50 0
-88 -70 0
-88 -110 0
-108 -10 0
-108 -30 0
-108 -50 0
-108 -70 0
-108 -90 0
-8 -31 0
-8 -51 0
-8 -71 0
-8 -91 0
-8 -111 0
-28 -11 0
-28 -51 0
-28 -71 0
-28 -91 0
-28 -111 0
-48 -11 0
-48 -31 0
-48 -71 0
-48 -91 0
-48 -111 0
-68 -11 0
-68 -31 0
-68 -51 0
-68 -91 0
-68 -111 0
-88 -11 0
-88 -31 0
-88 -51 0
-88 -71 0
-88 -111 0
-108 -11 0
-108 -31 0
-108 -51 0
-108 -71 0
-108 -91 0
-8 -32 0
-8 -52 0
-8 -72 0
-8 -92 0
-8 -112 0
-28 -12 0
-28 -52 0
-28 -72 0
-28 -92 0
-28 -112 0
-48 -12 0
-48 -32 0
-48 -72 0
-48 -92 0
-48 -112 0
-68 -12 0
-68 -32 0
-68 -52 0
-68 -92 0
-68 -112 0
-88 -12 0
-88 -32 0
-88 -52 0
-88 -72 0
-88 -112 0
-108 -12 0
-108 -32 0
-108 -52 0
-108 -72 0
-108 -92 0
-8 -33 0
-8 -53 0
-8 -73 0
-8 -93 0
-8 -113 0
-28 -13 0
-28 -53 0
-28 -73 0
-28 -93 0
-28 -113 0
-48 -13 0
-48 -33 0
-48 -73 0
-48 -93 0
-48 -113 0
-68 -13 0
-68 -33 0
-68 -53 0
-68 -93 0
-68 -113 0
-88 -13 0
-88 -33 0
-88 -53 0
-88 -73 0
-88 -113 0
-108 -13 0
-108 -33 0
-108 -53 0
-108 -73 0
-108 -93 0
-8 -34 0
-8 -54 0
-8 -74 0
-8 -94 0
-8 -114 0
-28 -14 0
-28 -54 0
-28 -74 0
-28 -94 0
-28 -114 0
-48 -14 0
-48 -34 0
-48 -74 0
-48 -94 0
-48 -114 0
-68 -14 0
-68 -34 0
-68 -54 0
-68 -94 0
-68 -114 0
-88 -14 0
-88 -34 0
-88 -54 0
-88 -74 0
-88 -114 0
-108 -14 0
-108 -34 0
-108 -54 0
-108 -74 0
-108 -94 0
-8 -35 0
-8 -55 0
-8 -75 0
-8 -95 0
-8 -115 0
-28 -15 0
-28 -55 0
-28 -75 0
-28 -95 0
-28 -115 0
-48 -15 0
-48 -35 0
-48 -75 0
-48 -95 0
-48 -115 0
-68 -15 0
-68 -35 0
-68 -55 0
-68 -95 0
-68 -115 0
-88 -15 0
-88 -35 0
-88 -55 0
-88 -75 0
-88 -115 0
-108 -15 0
-108 -35 0
-108 -55 0
-108 -75 0
-108 -95 0
-8 -36 0
-8 -56 0
-8 -76 0
-8 -96 0
-8 -116 0
-28 -16 0
-28 -56 0
-28 -76 0
-28 -96 0
-28 -116 0
-48 -16 0
-48 -36 0
-48 -76 0
-48 -96 0
-48 -116 0
-68 -16 0
-68 -36 0
-68 -56 0
-68 -96 0
-68 -116 0
-88 -16 0
-88 -36 0
-88 -56 0
-88 -76 0
-88 -116 0
-108 -16 0
-108 -36 0
-108 -56 0
-108 -76 0
-108 -96 0
-8 -37 0
-8 -57 0
-8 -77 0
-8 -97 0
-8 -117 0
-28 -17 0
-28 -57 0
-28 -77 0
-28 -97 0
-28 -117 0
-48 -17 0
-48 -37 0
-48 -77 0
-48 -97 0
-48 -117 0
-68 -17 0
-68 -37 0
-68 -57 0
-68 -97 0
-68 -117 0
-88 -17 0
-88 -37 0
-88 -57 0
-88 -77 0
-88 -117 0
-108 -17 0
-108 -37 0
-108 -57 0
-108 -77 0
-108 -97 0
-8 -38 0
-8 -58 0
-8 -78 0
-8 -98 0
-8 -118 0
-28 -18 0
-28 -58 0
-28 -78 0
-28 -98 0
-28 -118 0
-48 -18 0
-48 -38 0
-48 -78 0
-48 -98 0
-48 -118 0
-68 -18 0
-68 -38 0
-68 -58 0
-68 -98 0
-68 -118 0
-88 -18 0
-88 -38 0
-88 -58 0
-88 -78 0
-88 -118 0
-108 -18 0
-108 -38 0
-108 -58 0
-108 -78 0
-108 -98 0
-8 -39 0
-8 -59 0
-8 -79 0
-8 -99 0
-8 -119 0
-28 -19 0
-28 -59 0
-28 -79 0
-28 -99 0
-28 -119 0
-48 -19 0
-48 -39 0
-48 -79 0
-48 -99 0
-48 -119 0
-68 -19 0
-68 -39 0
-68 -59 0
-68 -99 0
-68 -119 0
-88 -19 0
-88 -39 0
-88 -59 0
-88 -79 0
-88 -119 0
-108 -19 0
-108 -39 0
-108 -59 0
-108 -79 0
-108 -99 0
-9 -36 0
-9 -56 0
-9 -76 0
-9 -96 0
-9 -116 0
-29 -16 0
-29 -56 0
-29 -76 0
-29 -96 0
-29 -116 0
-49 -16 0
-49 -36 0
-49 -76 0
-49 -96 0
-49 -116 0
-69 -16 0
-69 -36 0
-69 -56 0
-69 -96 0
-69 -116 0
-89 -16 0
-89 -36 0
-89 -56 0
-89 -76 0
-89 -116 0
-109 -16 0
-109 -36 0
-109 -56 0
-109 -76 0
-109 -96 0
-9 -37 0
-9 -57 0
-9 -77 0
-9 -97 0
-9 -117 0
-29 -17 0
-29 -57 0
-29 -77 0
-29 -97 0
-29 -117 0
-49 -17 0
-49 -37 0
-49 -77 0
-49 -97 0
-49 -117 0
-69 -17 0
-69 -37 0
-69 -57 0
-69 -97 0
-69 -117 0
-89 -17 0
-89 -37 0
-89 -57 0
-89 -77 0
-89 -117 0
-109 -17 0
-109 -37 0
-109 -57 0
-109 -77 0
-109 -97 0
-9 -39 0
-9 -59 0
-9 -79 0
-9 -99 0
-9 -119 0
-29 -19 0
-29 -59 0
-29 -79 0
-29 -99 0
-29 -119 0
-49 -19 0
-49 -39 0
-49 -79 0
-49 -99 0
-49 -119 0
-69 -19 0
-69 -39 0
-69 -59 0
-69 -99 0
-69 -119 0
-89 -19 0
-89 -39 0
-89 -59 0
-89 -79 0
-89 -119 0
-109 -19 0
-109 -39 0
-109 -59 0
-109 -79 0
-109 -99 0
-9 -40 0
-9 -60 0
-9 -80 0
-9 -100 0
-9 -120 0
-29 -20 0
-29 -60 0
-29 -80 0
-29 -100 0
-29 -120 0
-49 -20 0
-49 -40 0
-49 -80 0
-49 -100 0
-49 -120 0
-69 -20 0
-69 -40 0
-69 -60 0
-69 -100 0
-69 -120 0
-89 -20 0
-89 -40 0
-89 -60 0
-89 -80 0
-89 -120 0
-109 -20 0
-109 -40 0
-109 -60 0
-109 -80 0
-109 -100 0
-10 -32 0
-10 -52 0
-10 -72 0
-10 -92 0
-10 -112 0
-30 -12 0
-30 -52 0
-30 -72 0
-30 -92 0
-30 -112 0
-50 -12 0
-50 -32 0
-50 -72 0
-50 -92 0
-50 -112 0
-70 -12 0
-70 -32 0
-70 -52 0
-70 -92 0
-70 -112 0
-90 -12 0
-90 -32 0
-90 -52 0
-90 -72 0
-90 -112 0
-110 -12 0
-110 -32 0
-110 -52 0
-110 -72 0
-110 -92 0
-10 -34 0
-10 -54 0
-10 -74 0
-10 -94 0
-10 -114 0
-30 -14 0
-30 -54 0
-30 -74 0
-30 -94 0
-30 -114 0
-50 -14 0
-50 -34 0
-50 -74 0
-50 -94 0
-50 -114 0
-70 -14 0
-70 -34 0
-70 -54 0
-70 -94 0
-70 -114 0
-90 -14 0
-90 -34 0
-90 -54 0
-90 -74 0
-90 -114 0
-110 -14 0
-110 -34 0
-110 -54 0
-110 -74 0
-110 -94 0
-10 -39 0
-10 -59 0
-10 -79 0
-10 -99 0
-10 -119 0
-30 -19 0
-30 -59 0
-30 -79 0
-30 -99 0
-30 -119 0
-50 -19 0
-50 -39 0
-50 -79 0
-50 -99 0
-50 -119 0
-70 -19 0
-70 -39 0
-70 -59 0
-70 -99 0
-70 -119 0
-90 -19 0
-90 -39 0
-90 -59 0
-90 -79 0
-90 -119 0
-110 -19 0
-110 -39 0
-110 -59 0
-110 -79 0
-110 -99 0
-10 -40 0
-10 -60 0
-10 -80 0
-10 -100 0
-10 -120 0
-30 -20 0
-30 -60 0
-30 -80 0
-30 -100 0
-30 -120 0
-50 -20 0
-50 -40 0
-50 -80 0
-50 -100 0
-50 -120 0
-70 -20 0
-70 -40 0
-70 -60 0
-70 -100 0
-70 -120 0
-90 -20 0
-90 -40 0
-90 -60 0
-90 -80 0
-90 -120 0
-110 -20 0
-110 -40 0
-110 -60 0
-110 -80 0
-110 -100 0
-11 -34 0
-11 -54 0
-11 -74 0
-11 -94 0
-11 -114 0
-31 -14 0
-31 -54 0
-31 -74 0
-31 -94 0
-31 -114 0
-51 -14 0
-51 -34 0
-51 -74 0
-51 -94 0
-51 -114 0
-71 -14 0
-71 -34 0
-71 -54 0
-71 -94 0
-71 -114 0
-91 -14 0
-91 -34 0
-91 -54 0
-91 -74 0
-91 -114 0
-111 -14 0
-111 -34 0
-111 -54 0
-111 -74 0
-111 -94 0
-11 -37 0
-11 -57 0
-11 -77 0
-11 -97 0
-11 -117 0
-31 -17 0
-31 -57 0
-31 -77 0
-31 -97 0
-31 -117 0
-51 -17 0
-51 -37 0
-51 -77 0
-51 -97 0
-51 -117 0
-71 -17 0
-71 -37 0
-71 -57 0
-71 -97 0
-71 -117 0
-91 -17 0
-91 -37 0
-91 -57 0
-91 -77 0
-91 -117 0
-111 -17 0
-111 -37 0
-111 -57 0
-111 -77 0
-111 -97 0
-11 -38 0
-11 -58 0
-11 -78 0
-11 -98 0
-11 -118 0
-31 -18 0
-31 -58 0
-31 -78 0
-31 -98 0
-31 -118 0
-51 -18 0
-51 -38 0
-51 -78 0
-51 -98 0
-51 -118 0
-71 -18 0
-71 -38 0
-71 -58 0
-71 -98 0
-71 -118 0
-91 -18 0
-91 -38 0
-91 -58 0
-91 -78 0
-91 -118 0
-111 -18 0
-111 -38 0
-111 -58 0
-111 -78 0
-111 -98 0
-11 -39 0
-11 -59 0
-11 -79 0
-11 -99 0
-11 -119 0
-31 -19 0
-31 -59 0
-31 -79 0
-31 -99 0
-31 -119 0
-51 -19 0
-51 -39 0
-51 -79 0
-51 -99 0
-51 -119 0
-71 -19 0
-71 -39 0
-71 -59 0
-71 -99 0
-71 -119 0
-91 -19 0
-91 -39 0
-91 -59 0
-91 -79 0
-91 -119 0
-111 -19 0
-111 -39 0
-111 -59 0
-111 -79 0
-111 -99 0
-11 -40 0
-11 -60 0
-11 -80 0
-11 -100 0
-11 -120 0
-31 -20 0
-31 -60 0
-31 -80 0
-31 -100 0
-31 -120 0
-51 -20 0
-51 -40 0
-51 -80 0
-51 -100 0
-51 -120 0
-71 -20 0
-71 -40 0
-71 -60 0
-71 -100 0
-71 -120 0
-91 -20 0
-91 -40 0
-91 -60 0
-91 -80 0
-91 -120 0
-111 -20 0
-111 -40 0
-111 -60 0
-111 -80 0
-111 -100 0
-12 -33 0
-12 -53 0
-12 -73 0
-12 -93 0
-12 -113 0
-32 -13 0
-32 -53 0
-32 -73 0
-32 -93 0
-32 -113 0
-52 -13 0
-52 -33 0
-52 -73 0
-52 -93 0
-52 -113 0
-72 -13 0
-72 -33 0
-72 -53 0
-72 -93 0
-72 -113 0
-92 -13 0
-92 -33 0
-92 -53 0
-92 -73 0
-92 -113 0
-112 -13 0
-112 -33 0
-112 -53 0
-112 -73 0
-112 -93 0
-13 -36 0
-13 -56 0
-13 -76 0
-13 -96 0
-13 -116 0
-33 -16 0
-33 -56 0
-33 -76 0
-33 -96 0
-33 -116 0
-53 -16 0
-53 -36 0
-53 -76 0
-53 -96 0
-53 -116 0
-73 -16 0
-73 -36 0
-73 -56 0
-73 -96 0
-73 -116 0
-93 -16 0
-93 -36 0
-93 -56 0
-93 -76 0
-93 -116 0
-113 -16 0
-113 -36 0
-113 -56 0
-113 -76 0
-113 -96 0
-14 -35 0
-14 -55 0
-14 -75 0
-14 -95 0
-14 -115 0
-34 -15 0
-34 -55 0
-34 -75 0
-34 -95 0
-34 -115 0
-54 -15 0
-54 -35 0
-54 -75 0
-54 -95 0
-54 -115 0
-74 -15 0
-74 -35 0
-74 -55 0
-74 -95 0
-74 -115 0
-94 -15 0
-94 -35 0
-94 -55 0
-94 -75 0
-94 -115 0
-114 -15 0
-114 -35 0
-114 -55 0
-114 -75 0
-114 -95 0
-14 -36 0
-14 -56 0
-14 -76 0
-14 -96 0
-14 -116 0
-34 -16 0
-34 -56 0
-34 -76 0
-34 -96 0
-34 -116 0
-54 -16 0
-54 -36 0
-54 -76 0
-54 -96 0
-54 -116 0
-74 -16 0
-74 -36 0
-74 -56 0
-74 -96 0
-74 -116 0
-94 -16 0
-94 -36 0
-94 -56 0
-94 -76 0
-94 -116 0
-114 -16 0
-114 -36 0
-114 -56 0
-114 -76 0
-114 -96 0
-14 -40 0
-14 -60 0
-14 -80 0
-14 -100 0
-14 -120 0
-34 -20 0
-34 -60 0
-34 -80 0
-34 -100 0
-34 -120 0
-54 -20 0
-54 -40 0
-54 -80 0
-54 -100 0
-54 -120 0
-74 -20 0
-74 -40 0
-74 -60 0
-74 -100 0
-74 -120 0
-94 -20 0
-94 -40 0
-94 -60 0
-94 -80 0
-94 -120 0
-114 -20 0
-114 -40 0
-114 -60 0
-114 -80 0
-114 -100 0
-15 -37 0
-15 -57 0
-15 -77 0
-15 -97 0
-15 -117 0
-35 -17 0
-35 -57 0
-35 -77 0
-35 -97 0
-35 -117 0
-55 -17 0
-55 -37 0
-55 -77 0
-55 -97 0
-55 -117 0
-75 -17 0
-75 -37 0
-75 -57 0
-75 -97 0
-75 -117 0
-95 -17 0
-95 -37 0
-95 -57 0
-95 -77 0
-95 -117 0
-115 -17 0
-115 -37 0
-115 -57 0
-115 -77 0
-115 -97 0
-15 -38 0
-15 -58 0
-15 -78 0
-15 -98 0
-15 -118 0
-35 -18 0
-35 -58 0
-35 -78 0
-35 -98 0
-35 -118 0
-55 -18 0
-55 -38 0
-55 -78 0
-55 -98 0
-55 -118 0
-75 -18 0
-75 -38 0
-75 -58 0
-75 -98 0
-75 -118 0
-95 -18 0
-95 -38 0
-95 -58 0
-95 -78 0
-95 -118 0
-115 -18 0
-115 -38 0
-115 -58 0
-115 -78 0
-115 -98 0
-15 -40 0
-15 -60 0
-15 -80 0
-15 -100 0
-15 -120 0
-35 -20 0
-35 -60 0
-35 -80 0
-35 -100 0
-35 -120 0
-55 -20 0
-55 -40 0
-55 -80 0
-55 -100 0
-55 -120 0
-75 -20 0
-75 -40 0
-75 -60 0
-75 -100 0
-75 -120 0
-95 -20 0
-95 -40 0
-95 -60 0
-95 -80 0
-95 -120 0
-115 -20 0
-115 -40 0
-115 -60 0
-115 -80 0
-115 -100 0
-16 -38 0
-16 -58 0
-16 -78 0
-16 -98 0
-16 -118 0
-36 -18 0
-36 -58 0
-36 -78 0
-36 -98 0
-36 -118 0
-56 -18 0
-56 -38 0
-56 -78 0
-56 -98 0
-56 -118 0
-76 -18 0
-76 -38 0
-76 -58 0
-76 -98 0
-76 -118 0
-96 -18 0
-96 -38 0
-96 -58 0
-96 -78 0
-96 -118 0
-116 -18 0
-116 -38 0
-116 -58 0
-116 -78 0
-116 -98 0
-17 -39 0
-17 -59 0
-17 -79 0
-17 -99 0
-17 -119 0
-37 -19 0
-37 -59 0
-37 -79 0
-37 -99 0
-37 -119 0
-57 -19 0
-57 -39 0
-57 -79 0
-57 -99 0
-57 -119 0
-77 -19 0
-77 -39 0
-77 -59 0
-77 -99 0
-77 -119 0
-97 -19 0
-97 -39 0
-97 -59 0
-97 -79 0
-97 -119 0
-117 -19 0
-117 -39 0
-117 -59 0
-117 -79 0
-117 -99 0
-17 -40 0
-17 -60 0
-17 -80 0
-17 -100 0
-17 -120 0
-37 -20 0
-37 -60 0
-37 -80 0
-37 -100 0
-37 -120 0
-57 -20 0
-57 -40 0
-57 -80 0
-57 -100 0
-57 -120 0
-77 -20 0
-77 -40 0
-77 -60 0
-77 -100 0
-77 -120 0
-97 -20 0
-97 -40 0
-97 -60 0
-97 -80 0
-97 -120 0
-117 -20 0
-117 -40 0
-117 -60 0
-117 -80 0
-117 -100 0
-18 -40 0
-18 -60 0
-18 -80 0
-18 -100 0
-18 -120 0
-38 -20 0
-38 -60 0
-38 -80 0
-38 -100 0
-38 -120 0
-58 -20 0
-58 -40 0
-58 -80 0
-58 -100 0
-58 -120 0
-78 -20 0
-78 -40 0
-78 -60 0
-78 -100 0
-78 -120 0
-98 -20 0
-98 -40 0
-98 -60 0
-98 -80 0
-98 -120 0
-118 -20 0
-118 -40 0
-118 -60 0
-118 -80 0
-118 -100 0
-19 -40 0
-19 -60 0
-19 -80 0
-19 -100 0
-19 -120 0
-39 -20 0
-39 -60 0
-39 -80 0
-39 -100 0
-39 -120 0
-59 -20 0
-59 -40 0
-59 -80 0
-59 -100 0
-59 -120 0
-79 -20 0
-79 -40 0
-79 -60 0
-79 -100 0
-79 -120 0
-99 -20 0
-99 -40 0
-99 -60 0
-99 -80 0
-99 -120 0
-119 -20 0
-119 -40 0
-119 -60 0
-119 -80 0
-119 -100 0
